40
1 0 24
2 0 27
2 1 80
3 0 62
3 1 81
3 2 20
4 0 90
4 1 58
4 2 86
4 3 22
5 0 20
5 1 25
5 2 29
5 3 52
5 4 63
6 0 66
6 1 47
6 2 28
6 3 83
6 4 35
6 5 78
7 0 60
7 1 15
7 2 71
7 3 79
7 4 57
7 5 19
7 6 82
8 0 59
8 1 89
8 2 69
8 3 90
8 4 63
8 5 7
8 6 18
8 7 99
9 0 17
9 1 28
9 2 58
9 3 62
9 4 11
9 5 30
9 6 76
9 7 42
9 8 85
10 0 17
10 1 72
10 2 4
10 3 52
10 4 45
10 5 88
10 6 82
10 7 52
10 8 28
10 9 65
11 0 1
11 1 45
11 2 53
11 3 26
11 4 58
11 5 71
11 6 78
11 7 61
11 8 84
11 9 46
11 10 1
12 0 43
12 1 42
12 2 62
12 3 6
12 4 21
12 5 43
12 6 9
12 7 43
12 8 59
12 9 65
12 10 56
12 11 80
13 0 13
13 1 27
13 2 37
13 3 50
13 4 77
13 5 49
13 6 34
13 7 74
13 8 32
13 9 83
13 10 65
13 11 23
13 12 77
14 0 15
14 1 4
14 2 74
14 3 34
14 4 74
14 5 2
14 6 47
14 7 46
14 8 83
14 9 76
14 10 49
14 11 20
14 12 42
14 13 94
15 0 50
15 1 78
15 2 47
15 3 73
15 4 59
15 5 21
15 6 53
15 7 56
15 8 8
15 9 14
15 10 60
15 11 46
15 12 23
15 13 51
15 14 76
16 0 17
16 1 54
16 2 58
16 3 73
16 4 16
16 5 17
16 6 48
16 7 54
16 8 36
16 9 27
16 10 21
16 11 91
16 12 21
16 13 52
16 14 86
16 15 6
17 0 34
17 1 24
17 2 48
17 3 92
17 4 100
17 5 63
17 6 80
17 7 19
17 8 98
17 9 8
17 10 76
17 11 51
17 12 73
17 13 80
17 14 54
17 15 76
17 16 92
18 0 98
18 1 66
18 2 32
18 3 57
18 4 25
18 5 11
18 6 68
18 7 50
18 8 29
18 9 77
18 10 86
18 11 84
18 12 76
18 13 57
18 14 43
18 15 73
18 16 91
18 17 4
19 0 14
19 1 52
19 2 56
19 3 30
19 4 43
19 5 4
19 6 29
19 7 59
19 8 38
19 9 78
19 10 3
19 11 89
19 12 77
19 13 13
19 14 41
19 15 29
19 16 39
19 17 85
19 18 55
20 0 3
20 1 78
20 2 55
20 3 17
20 4 58
20 5 98
20 6 85
20 7 14
20 8 94
20 9 100
20 10 42
20 11 87
20 12 18
20 13 7
20 14 9
20 15 29
20 16 91
20 17 96
20 18 84
20 19 10
21 0 6
21 1 83
21 2 21
21 3 63
21 4 34
21 5 40
21 6 49
21 7 65
21 8 16
21 9 51
21 10 82
21 11 70
21 12 85
21 13 28
21 14 88
21 15 93
21 16 53
21 17 36
21 18 1
21 19 56
21 20 95
22 0 18
22 1 77
22 2 33
22 3 15
22 4 8
22 5 34
22 6 61
22 7 73
22 8 60
22 9 31
22 10 9
22 11 11
22 12 56
22 13 71
22 14 12
22 15 11
22 16 55
22 17 33
22 18 18
22 19 60
22 20 3
22 21 69
23 0 6
23 1 20
23 2 7
23 3 26
23 4 65
23 5 19
23 6 49
23 7 73
23 8 58
23 9 13
23 10 5
23 11 34
23 12 94
23 13 86
23 14 66
23 15 85
23 16 84
23 17 92
23 18 1
23 19 37
23 20 73
23 21 43
23 22 6
24 0 23
24 1 47
24 2 5
24 3 13
24 4 73
24 5 76
24 6 69
24 7 72
24 8 22
24 9 34
24 10 85
24 11 20
24 12 5
24 13 10
24 14 90
24 15 100
24 16 27
24 17 2
24 18 67
24 19 97
24 20 6
24 21 47
24 22 9
24 23 3
25 0 34
25 1 52
25 2 91
25 3 29
25 4 8
25 5 3
25 6 58
25 7 22
25 8 14
25 9 78
25 10 77
25 11 63
25 12 73
25 13 8
25 14 40
25 15 43
25 16 87
25 17 30
25 18 88
25 19 51
25 20 32
25 21 42
25 22 97
25 23 24
25 24 91
26 0 64
26 1 63
26 2 27
26 3 36
26 4 49
26 5 58
26 6 84
26 7 82
26 8 4
26 9 49
26 10 66
26 11 81
26 12 17
26 13 13
26 14 2
26 15 37
26 16 91
26 17 81
26 18 85
26 19 46
26 20 47
26 21 79
26 22 75
26 23 98
26 24 39
26 25 83
27 0 28
27 1 1
27 2 77
27 3 80
27 4 96
27 5 5
27 6 82
27 7 9
27 8 87
27 9 34
27 10 96
27 11 22
27 12 80
27 13 72
27 14 31
27 15 98
27 16 12
27 17 38
27 18 19
27 19 88
27 20 16
27 21 60
27 22 15
27 23 79
27 24 53
27 25 28
27 26 50
28 0 15
28 1 69
28 2 88
28 3 39
28 4 86
28 5 88
28 6 13
28 7 99
28 8 8
28 9 97
28 10 40
28 11 18
28 12 25
28 13 98
28 14 93
28 15 98
28 16 24
28 17 34
28 18 8
28 19 39
28 20 42
28 21 11
28 22 25
28 23 65
28 24 92
28 25 73
28 26 37
28 27 88
29 0 57
29 1 98
29 2 97
29 3 65
29 4 14
29 5 27
29 6 10
29 7 7
29 8 93
29 9 46
29 10 83
29 11 24
29 12 89
29 13 82
29 14 14
29 15 28
29 16 65
29 17 71
29 18 4
29 19 35
29 20 28
29 21 26
29 22 68
29 23 20
29 24 71
29 25 14
29 26 61
29 27 23
29 28 89
30 0 88
30 1 29
30 2 22
30 3 41
30 4 80
30 5 87
30 6 99
30 7 96
30 8 25
30 9 46
30 10 89
30 11 91
30 12 58
30 13 68
30 14 67
30 15 92
30 16 39
30 17 7
30 18 21
30 19 31
30 20 75
30 21 72
30 22 30
30 23 64
30 24 44
30 25 22
30 26 12
30 27 74
30 28 46
30 29 60
31 0 46
31 1 5
31 2 42
31 3 14
31 4 68
31 5 10
31 6 46
31 7 3
31 8 81
31 9 52
31 10 74
31 11 32
31 12 58
31 13 76
31 14 85
31 15 68
31 16 8
31 17 58
31 18 63
31 19 76
31 20 32
31 21 85
31 22 6
31 23 32
31 24 10
31 25 37
31 26 39
31 27 47
31 28 68
31 29 58
31 30 73
32 0 47
32 1 33
32 2 49
32 3 56
32 4 6
32 5 84
32 6 16
32 7 1
32 8 37
32 9 29
32 10 57
32 11 87
32 12 65
32 13 87
32 14 70
32 15 64
32 16 56
32 17 56
32 18 16
32 19 15
32 20 71
32 21 82
32 22 71
32 23 44
32 24 62
32 25 75
32 26 45
32 27 1
32 28 39
32 29 19
32 30 64
32 31 67
33 0 65
33 1 94
33 2 27
33 3 50
33 4 71
33 5 97
33 6 97
33 7 72
33 8 85
33 9 14
33 10 86
33 11 45
33 12 21
33 13 9
33 14 34
33 15 68
33 16 82
33 17 16
33 18 1
33 19 91
33 20 52
33 21 47
33 22 24
33 23 28
33 24 4
33 25 60
33 26 96
33 27 21
33 28 35
33 29 44
33 30 78
33 31 71
33 32 3
34 0 21
34 1 56
34 2 11
34 3 41
34 4 72
34 5 91
34 6 73
34 7 61
34 8 28
34 9 31
34 10 63
34 11 74
34 12 86
34 13 85
34 14 74
34 15 96
34 16 55
34 17 69
34 18 85
34 19 3
34 20 22
34 21 92
34 22 15
34 23 74
34 24 4
34 25 20
34 26 52
34 27 24
34 28 29
34 29 50
34 30 63
34 31 100
34 32 46
34 33 82
35 0 60
35 1 29
35 2 76
35 3 55
35 4 72
35 5 13
35 6 49
35 7 18
35 8 53
35 9 8
35 10 75
35 11 12
35 12 31
35 13 59
35 14 65
35 15 10
35 16 59
35 17 46
35 18 86
35 19 44
35 20 49
35 21 81
35 22 15
35 23 89
35 24 82
35 25 63
35 26 41
35 27 13
35 28 26
35 29 70
35 30 14
35 31 95
35 32 13
35 33 49
35 34 43
36 0 80
36 1 55
36 2 39
36 3 4
36 4 17
36 5 94
36 6 34
36 7 90
36 8 90
36 9 20
36 10 63
36 11 33
36 12 67
36 13 4
36 14 62
36 15 71
36 16 95
36 17 26
36 18 40
36 19 33
36 20 30
36 21 97
36 22 96
36 23 86
36 24 90
36 25 8
36 26 10
36 27 43
36 28 44
36 29 52
36 30 24
36 31 42
36 32 5
36 33 92
36 34 2
36 35 38
37 0 64
37 1 93
37 2 4
37 3 72
37 4 99
37 5 26
37 6 44
37 7 2
37 8 49
37 9 9
37 10 100
37 11 23
37 12 12
37 13 57
37 14 91
37 15 98
37 16 40
37 17 43
37 18 64
37 19 78
37 20 17
37 21 95
37 22 21
37 23 94
37 24 54
37 25 89
37 26 10
37 27 40
37 28 32
37 29 5
37 30 46
37 31 79
37 32 73
37 33 54
37 34 30
37 35 49
37 36 36
38 0 97
38 1 96
38 2 39
38 3 49
38 4 23
38 5 97
38 6 71
38 7 38
38 8 39
38 9 13
38 10 16
38 11 3
38 12 96
38 13 26
38 14 4
38 15 57
38 16 67
38 17 23
38 18 32
38 19 39
38 20 30
38 21 6
38 22 67
38 23 45
38 24 31
38 25 14
38 26 2
38 27 52
38 28 41
38 29 96
38 30 10
38 31 30
38 32 16
38 33 90
38 34 1
38 35 58
38 36 24
38 37 95
39 0 92
39 1 2
39 2 15
39 3 38
39 4 22
39 5 6
39 6 27
39 7 72
39 8 92
39 9 13
39 10 74
39 11 67
39 12 96
39 13 19
39 14 41
39 15 72
39 16 88
39 17 23
39 18 87
39 19 58
39 20 95
39 21 20
39 22 48
39 23 76
39 24 62
39 25 62
39 26 63
39 27 88
39 28 100
39 29 80
39 30 86
39 31 51
39 32 74
39 33 36
39 34 44
39 35 69
39 36 51
39 37 54
39 38 67
